p cnf 386 460
-7 4 -5 21 22 0
-7 4 -5 21 -22 0
-7 4 -5 -21 23 0
-7 4 -5 -21 -23 0
6 -8 -7 24 25 0
6 -8 -7 24 -25 0
6 -8 -7 -24 26 0
6 -8 -7 -24 -26 0
5 11 20 27 28 0
5 11 20 27 -28 0
5 11 20 -27 29 0
5 11 20 -27 -29 0
-13 6 -10 30 31 0
-13 6 -10 30 -31 0
-13 6 -10 -30 32 0
-13 6 -10 -30 -32 0
-8 18 14 33 34 0
-8 18 14 33 -34 0
-8 18 14 -33 35 0
-8 18 14 -33 -35 0
-5 1 -11 36 37 0
-5 1 -11 36 -37 0
-5 1 -11 -36 38 0
-5 1 -11 -36 -38 0
-6 -14 10 39 40 0
-6 -14 10 39 -40 0
-6 -14 10 -39 41 0
-6 -14 10 -39 -41 0
18 -20 -6 42 43 0
18 -20 -6 42 -43 0
18 -20 -6 -42 44 0
18 -20 -6 -42 -44 0
17 -6 11 45 46 0
17 -6 11 45 -46 0
17 -6 11 -45 47 0
17 -6 11 -45 -47 0
5 6 -8 48 49 0
5 6 -8 48 -49 0
5 6 -8 -48 50 0
5 6 -8 -48 -50 0
-10 -12 -13 51 52 0
-10 -12 -13 51 -52 0
-10 -12 -13 -51 53 0
-10 -12 -13 -51 -53 0
18 -17 -13 54 55 0
18 -17 -13 54 -55 0
18 -17 -13 -54 56 0
18 -17 -13 -54 -56 0
-8 -13 11 57 58 0
-8 -13 11 57 -58 0
-8 -13 11 -57 59 0
-8 -13 11 -57 -59 0
-5 16 -8 60 61 0
-5 16 -8 60 -61 0
-5 16 -8 -60 62 0
-5 16 -8 -60 -62 0
-5 -7 -6 63 64 0
-5 -7 -6 63 -64 0
-5 -7 -6 -63 65 0
-5 -7 -6 -63 -65 0
-5 1 -4 66 67 0
-5 1 -4 66 -67 0
-5 1 -4 -66 68 0
-5 1 -4 -66 -68 0
16 19 10 69 70 0
16 19 10 69 -70 0
16 19 10 -69 71 0
16 19 10 -69 -71 0
19 14 -18 72 73 0
19 14 -18 72 -73 0
19 14 -18 -72 74 0
19 14 -18 -72 -74 0
-11 12 -13 75 76 0
-11 12 -13 75 -76 0
-11 12 -13 -75 77 0
-11 12 -13 -75 -77 0
18 12 -2 78 79 0
18 12 -2 78 -79 0
18 12 -2 -78 80 0
18 12 -2 -78 -80 0
-15 8 -14 81 82 0
-15 8 -14 81 -82 0
-15 8 -14 -81 83 0
-15 8 -14 -81 -83 0
11 1 -12 84 85 0
11 1 -12 84 -85 0
11 1 -12 -84 86 0
11 1 -12 -84 -86 0
6 -7 -11 87 88 0
6 -7 -11 87 -88 0
6 -7 -11 -87 89 0
6 -7 -11 -87 -89 0
-20 6 -9 90 91 0
-20 6 -9 90 -91 0
-20 6 -9 -90 92 0
-20 6 -9 -90 -92 0
7 20 -8 93 94 0
7 20 -8 93 -94 0
7 20 -8 -93 95 0
7 20 -8 -93 -95 0
-1 -17 19 96 97 0
-1 -17 19 96 -97 0
-1 -17 19 -96 98 0
-1 -17 19 -96 -98 0
-8 5 -4 99 100 0
-8 5 -4 99 -100 0
-8 5 -4 -99 101 0
-8 5 -4 -99 -101 0
17 -10 -18 102 103 0
17 -10 -18 102 -103 0
17 -10 -18 -102 104 0
17 -10 -18 -102 -104 0
-5 12 -18 105 106 0
-5 12 -18 105 -106 0
-5 12 -18 -105 107 0
-5 12 -18 -105 -107 0
-10 -11 20 108 109 0
-10 -11 20 108 -109 0
-10 -11 20 -108 110 0
-10 -11 20 -108 -110 0
-7 -19 5 111 112 0
-7 -19 5 111 -112 0
-7 -19 5 -111 113 0
-7 -19 5 -111 -113 0
-20 17 12 114 115 0
-20 17 12 114 -115 0
-20 17 12 -114 116 0
-20 17 12 -114 -116 0
17 12 -1 117 118 0
17 12 -1 117 -118 0
17 12 -1 -117 119 0
17 12 -1 -117 -119 0
9 -16 10 120 121 0
9 -16 10 120 -121 0
9 -16 10 -120 122 0
9 -16 10 -120 -122 0
11 10 -9 123 124 0
11 10 -9 123 -124 0
11 10 -9 -123 125 0
11 10 -9 -123 -125 0
-14 -6 10 126 127 0
-14 -6 10 126 -127 0
-14 -6 10 -126 128 0
-14 -6 10 -126 -128 0
-7 -17 19 129 130 0
-7 -17 19 129 -130 0
-7 -17 19 -129 131 0
-7 -17 19 -129 -131 0
1 -13 -12 132 133 0
1 -13 -12 132 -133 0
1 -13 -12 -132 134 0
1 -13 -12 -132 -134 0
13 6 -12 135 136 0
13 6 -12 135 -136 0
13 6 -12 -135 137 0
13 6 -12 -135 -137 0
-11 18 1 138 139 0
-11 18 1 138 -139 0
-11 18 1 -138 140 0
-11 18 1 -138 -140 0
11 -19 13 141 142 0
11 -19 13 141 -142 0
11 -19 13 -141 143 0
11 -19 13 -141 -143 0
2 3 7 144 145 0
2 3 7 144 -145 0
2 3 7 -144 146 0
2 3 7 -144 -146 0
1 -16 13 147 148 0
1 -16 13 147 -148 0
1 -16 13 -147 149 0
1 -16 13 -147 -149 0
-14 18 -20 150 151 0
-14 18 -20 150 -151 0
-14 18 -20 -150 152 0
-14 18 -20 -150 -152 0
7 3 -11 153 154 0
7 3 -11 153 -154 0
7 3 -11 -153 155 0
7 3 -11 -153 -155 0
-17 7 11 156 157 0
-17 7 11 156 -157 0
-17 7 11 -156 158 0
-17 7 11 -156 -158 0
-19 6 -8 159 160 0
-19 6 -8 159 -160 0
-19 6 -8 -159 161 0
-19 6 -8 -159 -161 0
-1 8 -7 162 163 0
-1 8 -7 162 -163 0
-1 8 -7 -162 164 0
-1 8 -7 -162 -164 0
1 -2 17 165 166 0
1 -2 17 165 -166 0
1 -2 17 -165 167 0
1 -2 17 -165 -167 0
11 3 -4 168 169 0
11 3 -4 168 -169 0
11 3 -4 -168 170 0
11 3 -4 -168 -170 0
20 5 18 171 172 0
20 5 18 171 -172 0
20 5 18 -171 173 0
20 5 18 -171 -173 0
-11 -20 -7 174 175 0
-11 -20 -7 174 -175 0
-11 -20 -7 -174 176 0
-11 -20 -7 -174 -176 0
-8 -20 1 177 178 0
-8 -20 1 177 -178 0
-8 -20 1 -177 179 0
-8 -20 1 -177 -179 0
13 -10 14 180 181 0
13 -10 14 180 -181 0
13 -10 14 -180 182 0
13 -10 14 -180 -182 0
-8 15 6 183 184 0
-8 15 6 183 -184 0
-8 15 6 -183 185 0
-8 15 6 -183 -185 0
1 5 15 186 187 0
1 5 15 186 -187 0
1 5 15 -186 188 0
1 5 15 -186 -188 0
2 12 -1 189 190 0
2 12 -1 189 -190 0
2 12 -1 -189 191 0
2 12 -1 -189 -191 0
-5 -4 12 192 193 0
-5 -4 12 192 -193 0
-5 -4 12 -192 194 0
-5 -4 12 -192 -194 0
2 -6 18 195 196 0
2 -6 18 195 -196 0
2 -6 18 -195 197 0
2 -6 18 -195 -197 0
-15 -12 -7 198 199 0
-15 -12 -7 198 -199 0
-15 -12 -7 -198 200 0
-15 -12 -7 -198 -200 0
-11 2 6 201 202 0
-11 2 6 201 -202 0
-11 2 6 -201 203 0
-11 2 6 -201 -203 0
-14 18 12 204 205 0
-14 18 12 204 -205 0
-14 18 12 -204 206 0
-14 18 12 -204 -206 0
14 -7 -4 207 208 0
14 -7 -4 207 -208 0
14 -7 -4 -207 209 0
14 -7 -4 -207 -209 0
9 2 6 210 211 0
9 2 6 210 -211 0
9 2 6 -210 212 0
9 2 6 -210 -212 0
-8 -3 -14 213 214 0
-8 -3 -14 213 -214 0
-8 -3 -14 -213 215 0
-8 -3 -14 -213 -215 0
-6 -4 -13 216 217 0
-6 -4 -13 216 -217 0
-6 -4 -13 -216 218 0
-6 -4 -13 -216 -218 0
-1 9 -18 219 220 0
-1 9 -18 219 -220 0
-1 9 -18 -219 221 0
-1 9 -18 -219 -221 0
-13 16 7 222 223 0
-13 16 7 222 -223 0
-13 16 7 -222 224 0
-13 16 7 -222 -224 0
17 -9 -8 225 226 0
17 -9 -8 225 -226 0
17 -9 -8 -225 227 0
17 -9 -8 -225 -227 0
-4 -2 -18 228 229 0
-4 -2 -18 228 -229 0
-4 -2 -18 -228 230 0
-4 -2 -18 -228 -230 0
-7 -2 14 231 232 0
-7 -2 14 231 -232 0
-7 -2 14 -231 233 0
-7 -2 14 -231 -233 0
-19 13 -18 234 235 0
-19 13 -18 234 -235 0
-19 13 -18 -234 236 0
-19 13 -18 -234 -236 0
16 -18 -15 237 238 0
16 -18 -15 237 -238 0
16 -18 -15 -237 239 0
16 -18 -15 -237 -239 0
-8 -11 -4 240 241 0
-8 -11 -4 240 -241 0
-8 -11 -4 -240 242 0
-8 -11 -4 -240 -242 0
10 -15 -1 243 244 0
10 -15 -1 243 -244 0
10 -15 -1 -243 245 0
10 -15 -1 -243 -245 0
-19 18 12 246 247 0
-19 18 12 246 -247 0
-19 18 12 -246 248 0
-19 18 12 -246 -248 0
-16 3 -18 249 250 0
-16 3 -18 249 -250 0
-16 3 -18 -249 251 0
-16 3 -18 -249 -251 0
7 -6 12 252 253 0
7 -6 12 252 -253 0
7 -6 12 -252 254 0
7 -6 12 -252 -254 0
16 10 11 255 256 0
16 10 11 255 -256 0
16 10 11 -255 257 0
16 10 11 -255 -257 0
20 16 10 258 259 0
20 16 10 258 -259 0
20 16 10 -258 260 0
20 16 10 -258 -260 0
-6 5 -3 261 262 0
-6 5 -3 261 -262 0
-6 5 -3 -261 263 0
-6 5 -3 -261 -263 0
18 -15 -9 264 265 0
18 -15 -9 264 -265 0
18 -15 -9 -264 266 0
18 -15 -9 -264 -266 0
8 -4 -3 267 268 0
8 -4 -3 267 -268 0
8 -4 -3 -267 269 0
8 -4 -3 -267 -269 0
-17 1 9 270 271 0
-17 1 9 270 -271 0
-17 1 9 -270 272 0
-17 1 9 -270 -272 0
14 18 -15 273 274 0
14 18 -15 273 -274 0
14 18 -15 -273 275 0
14 18 -15 -273 -275 0
5 -6 -17 276 277 0
5 -6 -17 276 -277 0
5 -6 -17 -276 278 0
5 -6 -17 -276 -278 0
-4 -14 9 279 280 0
-4 -14 9 279 -280 0
-4 -14 9 -279 281 0
-4 -14 9 -279 -281 0
-8 -4 10 282 283 0
-8 -4 10 282 -283 0
-8 -4 10 -282 284 0
-8 -4 10 -282 -284 0
8 15 17 285 286 0
8 15 17 285 -286 0
8 15 17 -285 287 0
8 15 17 -285 -287 0
-20 2 -19 288 289 0
-20 2 -19 288 -289 0
-20 2 -19 -288 290 0
-20 2 -19 -288 -290 0
4 11 15 291 292 0
4 11 15 291 -292 0
4 11 15 -291 293 0
4 11 15 -291 -293 0
294 295 297 301 309 0
294 295 297 301 -309 0
294 295 297 -301 310 0
294 295 297 -301 -310 0
294 295 -297 302 311 0
294 295 -297 302 -311 0
294 295 -297 -302 312 0
294 295 -297 -302 -312 0
294 -295 298 303 313 0
294 -295 298 303 -313 0
294 -295 298 -303 314 0
294 -295 298 -303 -314 0
294 -295 -298 304 315 0
294 -295 -298 304 -315 0
294 -295 -298 -304 316 0
294 -295 -298 -304 -316 0
-294 296 299 305 317 0
-294 296 299 305 -317 0
-294 296 299 -305 318 0
-294 296 299 -305 -318 0
-294 296 -299 306 319 0
-294 296 -299 306 -319 0
-294 296 -299 -306 320 0
-294 296 -299 -306 -320 0
-294 -296 300 307 321 0
-294 -296 300 307 -321 0
-294 -296 300 -307 322 0
-294 -296 300 -307 -322 0
-294 -296 -300 308 323 0
-294 -296 -300 308 -323 0
-294 -296 -300 -308 324 0
-294 -296 -300 -308 -324 0
325 326 328 332 340 0
325 326 328 332 -340 0
325 326 328 -332 341 0
325 326 328 -332 -341 0
325 326 -328 333 342 0
325 326 -328 333 -342 0
325 326 -328 -333 343 0
325 326 -328 -333 -343 0
325 -326 329 334 344 0
325 -326 329 334 -344 0
325 -326 329 -334 345 0
325 -326 329 -334 -345 0
325 -326 -329 335 346 0
325 -326 -329 335 -346 0
325 -326 -329 -335 347 0
325 -326 -329 -335 -347 0
-325 327 330 336 348 0
-325 327 330 336 -348 0
-325 327 330 -336 349 0
-325 327 330 -336 -349 0
-325 327 -330 337 350 0
-325 327 -330 337 -350 0
-325 327 -330 -337 351 0
-325 327 -330 -337 -351 0
-325 -327 331 338 352 0
-325 -327 331 338 -352 0
-325 -327 331 -338 353 0
-325 -327 331 -338 -353 0
-325 -327 -331 339 354 0
-325 -327 -331 339 -354 0
-325 -327 -331 -339 355 0
-325 -327 -331 -339 -355 0
356 357 359 363 371 0
356 357 359 363 -371 0
356 357 359 -363 372 0
356 357 359 -363 -372 0
356 357 -359 364 373 0
356 357 -359 364 -373 0
356 357 -359 -364 374 0
356 357 -359 -364 -374 0
356 -357 360 365 375 0
356 -357 360 365 -375 0
356 -357 360 -365 376 0
356 -357 360 -365 -376 0
356 -357 -360 366 377 0
356 -357 -360 366 -377 0
356 -357 -360 -366 378 0
356 -357 -360 -366 -378 0
-356 358 361 367 379 0
-356 358 361 367 -379 0
-356 358 361 -367 380 0
-356 358 361 -367 -380 0
-356 358 -361 368 381 0
-356 358 -361 368 -381 0
-356 358 -361 -368 382 0
-356 358 -361 -368 -382 0
-356 -358 362 369 383 0
-356 -358 362 369 -383 0
-356 -358 362 -369 384 0
-356 -358 362 -369 -384 0
-356 -358 -362 370 385 0
-356 -358 -362 370 -385 0
-356 -358 -362 -370 386 0
-356 -358 -362 -370 -386 0

